NAME: ETSP
COMMENT: Generated by write_TSPLIB (R package TSP)
TYPE: TSP
DIMENSION: 200
EDGE_WEIGHT_TYPE: EUC_2D
NODE_COORD_SECTION
1 4.450000e+00 1.961300e+01
2 4.450000e+00 3.883900e+01
3 4.450000e+00 5.806400e+01
4 4.450000e+00 7.729000e+01
5 4.450000e+00 9.651600e+01
6 4.450000e+00 1.157420e+02
7 4.450000e+00 1.349670e+02
8 4.450000e+00 1.541930e+02
9 4.450000e+00 1.734190e+02
10 4.450000e+00 1.926450e+02
11 1.000000e+01 1.000000e+01
12 1.000000e+01 2.922600e+01
13 1.000000e+01 4.845200e+01
14 1.000000e+01 6.767700e+01
15 1.000000e+01 8.690300e+01
16 1.000000e+01 1.061290e+02
17 1.000000e+01 1.253550e+02
18 1.000000e+01 1.445800e+02
19 1.000000e+01 1.638060e+02
20 1.000000e+01 1.830320e+02
21 1.555000e+01 1.961300e+01
22 1.555000e+01 3.883900e+01
23 1.555000e+01 5.806400e+01
24 1.555000e+01 7.729000e+01
25 1.555000e+01 9.651600e+01
26 1.555000e+01 1.157420e+02
27 1.555000e+01 1.349670e+02
28 1.555000e+01 1.541930e+02
29 1.555000e+01 1.734190e+02
30 1.555000e+01 1.926450e+02
31 2.110000e+01 1.000000e+01
32 2.110000e+01 2.922600e+01
33 2.110000e+01 4.845200e+01
34 2.110000e+01 6.767700e+01
35 2.110000e+01 8.690300e+01
36 2.110000e+01 1.061290e+02
37 2.110000e+01 1.253550e+02
38 2.110000e+01 1.445800e+02
39 2.110000e+01 1.638060e+02
40 2.110000e+01 1.830320e+02
41 2.665000e+01 1.961300e+01
42 2.665000e+01 3.883900e+01
43 2.665000e+01 5.806400e+01
44 2.665000e+01 7.729000e+01
45 2.665000e+01 9.651600e+01
46 2.665000e+01 1.157420e+02
47 2.665000e+01 1.349670e+02
48 2.665000e+01 1.541930e+02
49 2.665000e+01 1.734190e+02
50 2.665000e+01 1.926450e+02
51 3.220000e+01 1.000000e+01
52 3.220000e+01 2.922600e+01
53 3.220000e+01 4.845200e+01
54 3.220000e+01 6.767700e+01
55 3.220000e+01 8.690300e+01
56 3.220000e+01 1.061290e+02
57 3.220000e+01 1.253550e+02
58 3.220000e+01 1.445800e+02
59 3.220000e+01 1.638060e+02
60 3.220000e+01 1.830320e+02
61 3.775000e+01 1.961300e+01
62 3.775000e+01 3.883900e+01
63 3.775000e+01 5.806400e+01
64 3.775000e+01 7.729000e+01
65 3.775000e+01 9.651600e+01
66 3.775000e+01 1.157420e+02
67 3.775000e+01 1.349670e+02
68 3.775000e+01 1.541930e+02
69 3.775000e+01 1.734190e+02
70 3.775000e+01 1.926450e+02
71 4.330000e+01 1.000000e+01
72 4.330000e+01 2.922600e+01
73 4.330000e+01 4.845200e+01
74 4.330000e+01 6.767700e+01
75 4.330000e+01 8.690300e+01
76 4.330000e+01 1.061290e+02
77 4.330000e+01 1.253550e+02
78 4.330000e+01 1.445800e+02
79 4.330000e+01 1.638060e+02
80 4.330000e+01 1.830320e+02
81 4.885000e+01 1.961300e+01
82 4.885000e+01 3.883900e+01
83 4.885000e+01 5.806400e+01
84 4.885000e+01 7.729000e+01
85 4.885000e+01 9.651600e+01
86 4.885000e+01 1.157420e+02
87 4.885000e+01 1.349670e+02
88 4.885000e+01 1.541930e+02
89 4.885000e+01 1.734190e+02
90 4.885000e+01 1.926450e+02
91 5.440000e+01 1.000000e+01
92 5.440000e+01 2.922600e+01
93 5.440000e+01 4.845200e+01
94 5.440000e+01 6.767700e+01
95 5.440000e+01 8.690300e+01
96 5.440000e+01 1.061290e+02
97 5.440000e+01 1.253550e+02
98 5.440000e+01 1.445800e+02
99 5.440000e+01 1.638060e+02
100 5.440000e+01 1.830320e+02
101 5.995000e+01 1.961300e+01
102 5.995000e+01 3.883900e+01
103 5.995000e+01 5.806400e+01
104 5.995000e+01 7.729000e+01
105 5.995000e+01 9.651600e+01
106 5.995000e+01 1.157420e+02
107 5.995000e+01 1.349670e+02
108 5.995000e+01 1.541930e+02
109 5.995000e+01 1.734190e+02
110 5.995000e+01 1.926450e+02
111 6.550000e+01 1.000000e+01
112 6.550000e+01 2.922600e+01
113 6.550000e+01 4.845200e+01
114 6.550000e+01 6.767700e+01
115 6.550000e+01 8.690300e+01
116 6.550000e+01 1.061290e+02
117 6.550000e+01 1.253550e+02
118 6.550000e+01 1.445800e+02
119 6.550000e+01 1.638060e+02
120 6.550000e+01 1.830320e+02
121 7.105000e+01 1.961300e+01
122 7.105000e+01 3.883900e+01
123 7.105000e+01 5.806400e+01
124 7.105000e+01 7.729000e+01
125 7.105000e+01 9.651600e+01
126 7.105000e+01 1.157420e+02
127 7.105000e+01 1.349670e+02
128 7.105000e+01 1.541930e+02
129 7.105000e+01 1.734190e+02
130 7.105000e+01 1.926450e+02
131 7.660000e+01 1.000000e+01
132 7.660000e+01 2.922600e+01
133 7.660000e+01 4.845200e+01
134 7.660000e+01 6.767700e+01
135 7.660000e+01 8.690300e+01
136 7.660000e+01 1.061290e+02
137 7.660000e+01 1.253550e+02
138 7.660000e+01 1.445800e+02
139 7.660000e+01 1.638060e+02
140 7.660000e+01 1.830320e+02
141 8.215000e+01 1.961300e+01
142 8.215000e+01 3.883900e+01
143 8.215000e+01 5.806400e+01
144 8.215000e+01 7.729000e+01
145 8.215000e+01 9.651600e+01
146 8.215000e+01 1.157420e+02
147 8.215000e+01 1.349670e+02
148 8.215000e+01 1.541930e+02
149 8.215000e+01 1.734190e+02
150 8.215000e+01 1.926450e+02
151 8.770000e+01 1.000000e+01
152 8.770000e+01 2.922600e+01
153 8.770000e+01 4.845200e+01
154 8.770000e+01 6.767700e+01
155 8.770000e+01 8.690300e+01
156 8.770000e+01 1.061290e+02
157 8.770000e+01 1.253550e+02
158 8.770000e+01 1.445800e+02
159 8.770000e+01 1.638060e+02
160 8.770000e+01 1.830320e+02
161 9.325000e+01 1.961300e+01
162 9.325000e+01 3.883900e+01
163 9.325000e+01 5.806400e+01
164 9.325000e+01 7.729000e+01
165 9.325000e+01 9.651600e+01
166 9.325000e+01 1.157420e+02
167 9.325000e+01 1.349670e+02
168 9.325000e+01 1.541930e+02
169 9.325000e+01 1.734190e+02
170 9.325000e+01 1.926450e+02
171 9.880000e+01 1.000000e+01
172 9.880000e+01 2.922600e+01
173 9.880000e+01 4.845200e+01
174 9.880000e+01 6.767700e+01
175 9.880000e+01 8.690300e+01
176 9.880000e+01 1.061290e+02
177 9.880000e+01 1.253550e+02
178 9.880000e+01 1.445800e+02
179 9.880000e+01 1.638060e+02
180 9.880000e+01 1.830320e+02
181 1.043500e+02 1.961300e+01
182 1.043500e+02 3.883900e+01
183 1.043500e+02 5.806400e+01
184 1.043500e+02 7.729000e+01
185 1.043500e+02 9.651600e+01
186 1.043500e+02 1.157420e+02
187 1.043500e+02 1.349670e+02
188 1.043500e+02 1.541930e+02
189 1.043500e+02 1.734190e+02
190 1.043500e+02 1.926450e+02
191 1.099000e+02 1.000000e+01
192 1.099000e+02 2.922600e+01
193 1.099000e+02 4.845200e+01
194 1.099000e+02 6.767700e+01
195 1.099000e+02 8.690300e+01
196 1.099000e+02 1.061290e+02
197 1.099000e+02 1.253550e+02
198 1.099000e+02 1.445800e+02
199 1.099000e+02 1.638060e+02
200 1.099000e+02 1.830320e+02
EOF
